data/CVRPLIB/Vrp-Set-XML100/instances/XML100_1114_18.vrp
NAME : XML100_1114_18
COMMENT : Generated by Queiroga, Sadykov, Uchoa, and Vidal (2021)
TYPE : CVRP
DIMENSION : 101
EDGE_WEIGHT_TYPE : EUC_2D
CAPACITY : 12
NODE_COORD_SECTION
1    178  248 
2    785  444 
3    117  823 
4    310  5   
5    186  72  
6    489  422 
7    792  596 
8    632  765 
9    657  743 
10   962  417 
11   438  964 
12   908  875 
13   600  747 
14   55   211 
15   695  965 
16   179  250 
17   739  468 
18   990  534 
19   398  172 
20   345  667 
21   902  374 
22   369  557 
23   947  529 
24   425  86  
25   613  216 
26   200  788 
27   606  977 
28   444  311 
29   295  757 
30   399  823 
31   130  446 
32   20   105 
33   330  523 
34   949  588 
35   257  404 
36   752  80  
37   983  944 
38   539  939 
39   174  177 
40   47   216 
41   992  794 
42   479  893 
43   307  581 
44   23   474 
45   861  345 
46   145  207 
47   604  988 
48   667  440 
49   721  218 
50   282  678 
51   418  955 
52   810  674 
53   658  611 
54   96   143 
55   921  160 
56   850  339 
57   7    203 
58   249  296 
59   380  888 
60   205  749 
61   131  864 
62   399  414 
63   722  398 
64   930  257 
65   383  684 
66   388  683 
67   882  409 
68   532  1   
69   880  923 
70   851  702 
71   193  665 
72   760  251 
73   357  216 
74   171  640 
75   288  586 
76   152  661 
77   256  503 
78   798  846 
79   748  167 
80   608  408 
81   775  469 
82   310  875 
83   695  923 
84   827  937 
85   788  533 
86   890  383 
87   769  200 
88   561  771 
89   654  654 
90   461  128 
91   400  112 
92   531  620 
93   403  269 
94   867  231 
95   310  672 
96   371  92  
97   462  901 
98   273  573 
99   764  354 
100  660  37  
101  820  81  
DEMAND_SECTION
1    0   
2    1   
3    1   
4    1   
5    1   
6    1   
7    1   
8    1   
9    1   
10   1   
11   1   
12   1   
13   1   
14   1   
15   1   
16   1   
17   1   
18   1   
19   1   
20   1   
21   1   
22   1   
23   1   
24   1   
25   1   
26   1   
27   1   
28   1   
29   1   
30   1   
31   1   
32   1   
33   1   
34   1   
35   1   
36   1   
37   1   
38   1   
39   1   
40   1   
41   1   
42   1   
43   1   
44   1   
45   1   
46   1   
47   1   
48   1   
49   1   
50   1   
51   1   
52   1   
53   1   
54   1   
55   1   
56   1   
57   1   
58   1   
59   1   
60   1   
61   1   
62   1   
63   1   
64   1   
65   1   
66   1   
67   1   
68   1   
69   1   
70   1   
71   1   
72   1   
73   1   
74   1   
75   1   
76   1   
77   1   
78   1   
79   1   
80   1   
81   1   
82   1   
83   1   
84   1   
85   1   
86   1   
87   1   
88   1   
89   1   
90   1   
91   1   
92   1   
93   1   
94   1   
95   1   
96   1   
97   1   
98   1   
99   1   
100  1   
101  1   
DEPOT_SECTION
1
-1
EOF
