data/CVRPLIB/Vrp-Set-XML100/solutions/XML100_1114_18.sol
Route #1: 45 53 31 56 39 13
Route #2: 67 99 35 100 54 63 93 71 86 78 48 24
Route #3: 29 58 50 10 96 41 37 26 46 14 82 87
Route #4: 57 34 32 21 65 64 19 94 42 74 97 76
Route #5: 38 4 3 95 90 23 89 18 72 15
Route #6: 61 5 52 88 6 84 80 16 47 79 27 92
Route #7: 91 12 7 8 77 83 68 11 36 40 69 51
Route #8: 30 49 28 81 60 2 25 59 70 73 75 43
Route #9: 62 1 22 33 17 9 66 85 20 44 55 98
Cost 13839
